NAME : amz1818.108515_108515.tour
COMMENT : Cost = 108515_108515
COMMENT : Found by LKH-AMZ [Keld Helsgaun] Sun May 11 15:01:04 2025
COMMENT : TW viol.: 0 #: 0
TYPE : TOUR
DIMENSION : 115
TOUR_SECTION
44
81
114
54
41
91
40
115
6
36
96
8
109
2
42
83
45
76
84
25
93
98
21
9
88
107
16
110
19
28
66
73
26
78
100
69
108
63
75
5
27
58
104
15
3
48
38
61
11
52
35
105
30
112
59
102
31
13
57
43
14
50
12
87
33
101
1
97
90
53
92
29
60
37
95
86
62
22
17
72
18
49
7
39
106
34
85
67
32
99
64
65
4
71
70
47
103
82
80
55
111
79
94
68
77
89
74
23
20
56
51
10
113
46
24
-1
EOF
